
;this file is automatically generated: Mon Feb 10 17:01:40 CST 2020

;declarations generated

(declare-fun type_5fbebac7_9cba_4890_a6cb_5d006dbe3454_Class19 ( Int) Bool)
(declare-fun type_5fbebac7_9cba_4890_a6cb_5d006dbe3454_Class2 ( Int) Bool)
(declare-fun oclExcludes ( Int Int) Bool)
(declare-fun type_5fbebac7_9cba_4890_a6cb_5d006dbe3454_Class5 ( Int) Bool)
(declare-fun type_5fbebac7_9cba_4890_a6cb_5d006dbe3454_Class46 ( Int) Bool)
(declare-fun Cardinality ( Int) Int)
(declare-fun obj_30aca8be_403a_4ef0_879d_9275d695b061 ( Int) Int)
(declare-fun oclSelect ( Int Bool) Int)
(declare-fun Enum0 ( Int) Int)
(declare-fun Enum1 ( Int) Int)
(declare-fun Enum2 ( Int) Int)
(declare-fun class5_Class5BoolAttr2 ( Int) Bool)
(declare-fun container_ ( Int) Int)
(declare-fun oclIncludes ( Int Int) Bool)
(declare-fun ObjAt ( Int Int) Int)

;formula(s) generated
(assert (! (forall ((v Int)) (=> (and (and (and ( type_5fbebac7_9cba_4890_a6cb_5d006dbe3454_Class5 v )  ( type_5fbebac7_9cba_4890_a6cb_5d006dbe3454_Class46 v ) ) ( type_5fbebac7_9cba_4890_a6cb_5d006dbe3454_Class19 v ) ) ( type_5fbebac7_9cba_4890_a6cb_5d006dbe3454_Class2 v ) ) ( class5_Class5BoolAttr2 ( obj_30aca8be_403a_4ef0_879d_9275d695b061 v )  ) )):named l0))
(assert (exists ((o Int)) (and (and (and ( type_5fbebac7_9cba_4890_a6cb_5d006dbe3454_Class5 ( obj_30aca8be_403a_4ef0_879d_9275d695b061 o )  )  ( type_5fbebac7_9cba_4890_a6cb_5d006dbe3454_Class46 ( obj_30aca8be_403a_4ef0_879d_9275d695b061 o )  ) ) ( type_5fbebac7_9cba_4890_a6cb_5d006dbe3454_Class19 ( obj_30aca8be_403a_4ef0_879d_9275d695b061 o )  ) ) ( type_5fbebac7_9cba_4890_a6cb_5d006dbe3454_Class2 ( obj_30aca8be_403a_4ef0_879d_9275d695b061 o )  ) )))

 ;end of formula 